1696415
37 28787
63
541798 541813 541818 8673 367981 401060 401159 493728 525861 533605 541787 541793 541800 541802 541803 541804 541805 541806 541808 541807 541795 541809 541814 541815 541817 541821 541822 541823 541826 541827 541831 541834 541835 541838 541819 541837 541825 401061 541797 541816 541828 541789 401160 541794 541792 541799 541790 402531 541788 541812 541830 541796 541811 541833 541791 541832 223437 541820 541801 493726 493727 275287 541810 
17033 693272
342627
